;; Original file: term_129.smt2
(set-logic HORN)
(declare-fun starexecinv1 (Real Real Real Real) Bool)

(assert (forall ((|gh0prime| Real)
         (|XXX0prime| Real)
         (|XXX1prime| Real)
         (|XXX2prime| Real))
  (let ((a!1 (> |gh0prime| (* (+ 0 (- 1)) |XXX0prime|)))
        (a!2 (> |gh0prime| (* (+ 0 (- 1)) |XXX1prime|)))
        (a!3 (> |gh0prime| (* (+ 0 (- 1)) |XXX2prime|))))
    (=> (and true
             (> |gh0prime| |XXX0prime|)
             (> |gh0prime| |XXX1prime|)
             (> |gh0prime| |XXX2prime|)
             a!1
             a!2
             a!3)
        (starexecinv1 |XXX0prime| |XXX1prime| |XXX2prime| |gh0prime|)))))
(assert (forall ((|XXX0| Real)
         (|XXX1| Real)
         (|XXX2| Real)
         (gh0 Real)
         (|XXX0prime| Real)
         (|XXX1prime| Real)
         (|XXX2prime| Real)
         (|gh0prime| Real))
  (let ((a!1 (and (starexecinv1 |XXX0| |XXX1| |XXX2| gh0)
                  (or (>= |XXX0| (+ 0 0))
                      (>= |XXX1| (+ 0 0))
                      (>= |XXX2| (+ 0 0)))
                  (= |XXX0prime| (- |XXX1| (+ 0 1)))
                  (= |XXX1prime| (- |XXX2| (+ 0 1)))
                  (= |XXX2prime| (- |XXX0| (+ 0 1)))
                  (= |gh0prime| (- gh0 (+ 0 1))))))
    (=> a!1 (starexecinv1 |XXX0prime| |XXX1prime| |XXX2prime| |gh0prime|)))))
(assert (forall ((|XXX0| Real)
         (|XXX1| Real)
         (|XXX2| Real)
         (gh0 Real)
         )
  (let ((a!1 (and (starexecinv1 |XXX0| |XXX1| |XXX2| gh0)
                  (or (>= |XXX0| (+ 0 0))
                      (>= |XXX1| (+ 0 0))
                      (>= |XXX2| (+ 0 0)))
                  (< gh0 (+ 0 0)))))
    (=> a!1 false))))
(check-sat)
